environments_harbor/cryptominisat_assumptions_handling_hard/environment/circuit/circuit.cnf
p cnf 100 50
1 2 0
-1 3 0
-2 3 0
-3 4 5 0
4 -6 0
5 -6 0
6 7 8 0
-7 9 0
-8 9 0
-9 10 0
10 11 12 0
-11 13 0
-12 13 0
1 -4 14 0
-14 15 0
2 -5 16 0
-16 17 0
15 17 -18 0
18 19 20 0
-19 21 0
-20 21 0
-21 22 0
13 -22 23 0
-23 24 25 0
24 -26 0
25 -26 0
26 27 0
-27 28 29 0
28 -30 0
29 -30 0
3 6 -31 0
31 32 0
-32 33 34 0
-33 35 0
-34 35 0
-35 36 0
14 16 -37 0
37 38 39 0
-38 40 0
-39 40 0
23 30 -41 0
41 42 0
-42 43 44 0
-43 45 0
-44 45 0
36 40 -46 0
46 47 48 0
-47 49 0
-48 49 0
-45 -49 50 0